
Gurobi 7.0.2 (win64, Python) logging started 11/20/18 09:51:11

Read LP format model from file model.lp
Reading time = 0.20 seconds
objective_function: 22264 rows, 18205 columns, 56613 nonzeros
Iteration    Objective       Primal Inf.    Dual Inf.      Time
       0      handle free variables                          0s

IIS computed: 15 constraints and 7 bounds
IIS runtime: 0.09 seconds
